# Solution for model GasLib-40
# Objective value = 4.3771399764660579e+01
loadshed[innode_1] 0
loadshed[innode_2] 0
loadshed[innode_3] 0
loadshed[innode_4] 0
loadshed[innode_5] 0
loadshed[innode_6] 0
loadshed[innode_7] 0
loadshed[innode_8] 0
loadshed[source_1] -1.9252029388423630e-01
loadshed[source_2] 1.7757138948537998e-01
loadshed[source_3] 2.9182487918942379e-01
loadshed[sink_1] 0
loadshed[sink_2] 0
loadshed[sink_3] 0
loadshed[sink_4] 0
loadshed[sink_5] 0
loadshed[sink_6] 0
loadshed[sink_7] 0
loadshed[sink_8] 0
loadshed[sink_9] 0
loadshed[sink_10] 0
loadshed[sink_11] 0
loadshed[sink_12] 1
loadshed[sink_13] 0
loadshed[sink_14] 0
loadshed[sink_15] 0
loadshed[sink_16] 0
loadshed[sink_17] 0
loadshed[sink_18] 0
loadshed[sink_19] 0
loadshed[sink_20] 0
loadshed[sink_21] 1
loadshed[sink_22] 0
loadshed[sink_23] 0
loadshed[sink_24] 6.7646775631045564e-01
loadshed[sink_25] 0
loadshed[sink_26] 0
loadshed[sink_27] 0
loadshed[sink_28] 0
loadshed[sink_29] 0
flow[source_1,sink_3] 1.8852586451579612e+02
flow[innode_1,sink_16] 1.6354166666666970e+01
flow[innode_6,sink_13] 2.5235651024117445e+00
flow[sink_13,sink_14] -1.3830601564254923e+01
flow[sink_14,sink_10] -3.0184768230921591e+01
flow[sink_25,sink_26] 1.2231040424749733e+02
flow[sink_26,sink_9] 1.6354166666669244e+01
flow[sink_9,sink_18] 0
flow[sink_26,sink_4] 8.9602070914161416e+01
flow[sink_4,sink_20] -1.5240766202087308e+01
flow[sink_18,sink_6] -1.6354166666667879e+01
flow[sink_25,innode_8] -1.5581753118245976e+02
flow[sink_6,sink_7] -6.5416666666666671e+01
flow[sink_6,sink_22] 3.2708333333333641e+01
flow[sink_7,sink_24] 5.2911002353394263e+00
flow[sink_22,sink_1] 1.6354166666666970e+01
flow[sink_24,sink_21] 0
flow[sink_21,sink_12] 0
flow[sink_7,sink_5] -8.7061933568674277e+01
flow[sink_5,sink_17] -1.0341610023534095e+02
flow[sink_17,sink_4] -8.8488670449582060e+01
flow[sink_17,sink_8] -3.1281596452425564e+01
flow[sink_3,sink_23] 16.3541666666697
flow[sink_8,sink_20] -4.7635763119092232e+01
flow[sink_25,sink_20] 7.9230695987846190e+01
flow[sink_25,sink_15] -6.4601300821963221e+01
flow[sink_15,sink_29] -9.7309634155314143e+01
flow[sink_29,sink_28] 1.6354166666667879e+01
flow[sink_29,sink_2] 0
flow[sink_2,sink_15] -1.6354166666684250e+01
flow[sink_29,innode_7] -1.3001796748864808e+02
flow[innode_4,sink_19] 0
flow[sink_19,innode_3] 3.8672332394152534e+01
flow[innode_4,innode_5] 1.1195560156425532e+02
flow[sink_27,innode_5] -1.1195560156425532e+02
flow[sink_27,sink_19] 9.5601434897588646e+01
flow[sink_10,sink_11] 3.2708333333333641e+01
flow[sink_10,innode_2] -4.0574935836769363e+01
flow[sink_10,innode_3] -3.8672332394152534e+01
flow[innode_6,sink_25] -2.5235651024117445e+00
flow[sink_11,innode_1] 1.6354166666666970e+01
flow[sink_19,innode_2] 4.0574935836769363e+01
flow[source_3,innode_4] 1.1195560156425532e+02
flow[source_2,innode_7] 1.3001796748864808e+02
flow[sink_3,innode_8] 1.5581753118245976e+02
pressure[innode_1] 7.5658364057702443e+01
pressure[innode_2] 77.9546183042527
pressure[innode_3] 7.7868982803332443e+01
pressure[innode_4] 81.01325
pressure[innode_5] 8.0936241033806951e+01
pressure[innode_6] 7.4371529164881650e+01
pressure[innode_7] 81.01325
pressure[innode_8] 8.0383080054414350e+01
pressure[source_1] 81.01325
pressure[source_2] 81.01325
pressure[source_3] 81.01325
pressure[sink_1] 4.0720730095342184e+00
pressure[sink_2] 7.4631515673019791e+01
pressure[sink_3] 8.0383080054414350e+01
pressure[sink_4] 5.4365040026109043e+01
pressure[sink_5] 4.3279542869407258e+01
pressure[sink_6] 6.1731506199215920e+00
pressure[sink_7] 7.0711655235217821e+00
pressure[sink_8] 5.2163630725636636e+01
pressure[sink_9] 6.4778440138705079e+01
pressure[sink_10] 7.5810065365305988e+01
pressure[sink_11] 7.5658364057702443e+01
pressure[sink_12] 1.01325
pressure[sink_13] 7.4357617172198957e+01
pressure[sink_14] 7.4382368211804945e+01
pressure[sink_15] 7.4684908422786236e+01
pressure[sink_16] 7.4636714222884763e+01
pressure[sink_17] 5.0983294823897438e+01
pressure[sink_18] 5.7364456771683523e+00
pressure[sink_19] 77.9546183042527
pressure[sink_20] 5.5483173500389348e+01
pressure[sink_21] 1.01325
pressure[sink_22] 5.1358421518892285e+00
pressure[sink_23] 8.0218362042754563e+01
pressure[sink_24] 1.01325
pressure[sink_25] 7.4371529164881650e+01
pressure[sink_26] 65.7572792226475
pressure[sink_27] 8.0007216412531648e+01
pressure[sink_28] 7.7240496440863936e+01
pressure[sink_29] 7.7535778714481111e+01
interdiction[source_1,sink_3] 0
interdiction[innode_1,sink_16] 0
interdiction[innode_6,sink_13] 0
interdiction[sink_13,sink_14] 0
interdiction[sink_14,sink_10] 0
interdiction[sink_25,sink_26] 0
interdiction[sink_26,sink_9] 0
interdiction[sink_9,sink_18] 1
interdiction[sink_26,sink_4] 0
interdiction[sink_4,sink_20] 0
interdiction[sink_18,sink_6] 0
interdiction[sink_25,innode_8] 0
interdiction[sink_6,sink_7] 0
interdiction[sink_6,sink_22] 0
interdiction[sink_7,sink_24] 0
interdiction[sink_22,sink_1] 0
interdiction[sink_24,sink_21] 0
interdiction[sink_21,sink_12] 0
interdiction[sink_7,sink_5] 0
interdiction[sink_5,sink_17] 0
interdiction[sink_17,sink_4] 0
interdiction[sink_17,sink_8] 0
interdiction[sink_3,sink_23] 0
interdiction[sink_8,sink_20] 0
interdiction[sink_25,sink_20] 0
interdiction[sink_25,sink_15] 0
interdiction[sink_15,sink_29] 0
interdiction[sink_29,sink_28] 0
interdiction[sink_29,sink_2] 1
interdiction[sink_2,sink_15] 0
interdiction[sink_29,innode_7] 0
interdiction[innode_4,sink_19] 1
interdiction[sink_19,innode_3] 0
interdiction[innode_4,innode_5] 0
interdiction[sink_27,innode_5] 0
interdiction[sink_27,sink_19] 0
interdiction[sink_10,sink_11] 0
interdiction[sink_10,innode_2] 0
interdiction[sink_10,innode_3] 0
interdiction[innode_6,sink_25] 0
interdiction[sink_11,innode_1] 0
interdiction[sink_19,innode_2] 0
interdiction[source_3,innode_4] 0
interdiction[source_2,innode_7] 0
interdiction[sink_3,innode_8] 0
WCcheckFlow[source_1,sink_3] 39
WCcheckFlow[innode_1,sink_16] 1
WCcheckFlow[innode_6,sink_13] 13
WCcheckFlow[sink_13,sink_14] 12
WCcheckFlow[sink_14,sink_10] 11
WCcheckFlow[sink_25,sink_26] 15
WCcheckFlow[sink_26,sink_9] 1
WCcheckFlow[sink_9,sink_18] 0
WCcheckFlow[sink_26,sink_4] 13
WCcheckFlow[sink_4,sink_20] 1
WCcheckFlow[sink_18,sink_6] -1
WCcheckFlow[sink_25,innode_8] -36
WCcheckFlow[sink_6,sink_7] -4
WCcheckFlow[sink_6,sink_22] 2
WCcheckFlow[sink_7,sink_24] 3
WCcheckFlow[sink_22,sink_1] 1
WCcheckFlow[sink_24,sink_21] 2
WCcheckFlow[sink_21,sink_12] 1
WCcheckFlow[sink_7,sink_5] -8
WCcheckFlow[sink_5,sink_17] -9
WCcheckFlow[sink_17,sink_4] -11
WCcheckFlow[sink_17,sink_8] 1
WCcheckFlow[sink_3,sink_23] 1
WCcheckFlow[sink_8,sink_20] 0
WCcheckFlow[sink_25,sink_20] 0
WCcheckFlow[sink_25,sink_15] 6
WCcheckFlow[sink_15,sink_29] 4
WCcheckFlow[sink_29,sink_28] 1
WCcheckFlow[sink_29,sink_2] 0
WCcheckFlow[sink_2,sink_15] -1
WCcheckFlow[sink_29,innode_7] 2
WCcheckFlow[innode_4,sink_19] 0
WCcheckFlow[sink_19,innode_3] -5
WCcheckFlow[innode_4,innode_5] -2
WCcheckFlow[sink_27,innode_5] 3
WCcheckFlow[sink_27,sink_19] -4
WCcheckFlow[sink_10,sink_11] 3
WCcheckFlow[sink_10,innode_2] 1
WCcheckFlow[sink_10,innode_3] 6
WCcheckFlow[innode_6,sink_25] -14
WCcheckFlow[sink_11,innode_1] 2
WCcheckFlow[sink_19,innode_2] 0
WCcheckFlow[source_3,innode_4] -1
WCcheckFlow[source_2,innode_7] -1
WCcheckFlow[sink_3,innode_8] 37
